networks/zoo_146_3979/zoo_146_3979-lower.txt
Number of groups: 91
Flow 47: {1 2 0} {2 7 1} {7 53 2} {53 128 3} 
Flow 49: {2 4 0} {4 11 1} {11 55 2} {55 130 3} 
Flow 51: {58 57 0} {57 132 1} 
Flow 102: {67 68 0} {68 143 1} 
Flow 116: {3 63 0} {63 59 1} {59 18 2} {18 17 3} {17 92 4} 
Flow 225: {5 6 1} {6 11 2} {11 7 3} {7 82 4} 
Flow 433: {8 7 0} {7 52 1} {52 58 2} {58 56 3} {56 131 4} 
Flow 457: {9 10 0} {10 28 1} {28 69 2} {69 13 3} {13 88 4} 
Flow 473: {28 16 0} {16 61 1} {61 49 2} {49 39 3} {39 114 4} 
Flow 633: {4 2 0} {2 77 1} 
Flow 687: {12 68 0} {68 65 1} {65 140 2} 
Flow 722: {14 13 0} {13 69 1} {69 16 2} {16 15 3} {15 90 4} 
Flow 792: {15 37 0} {37 61 1} {61 136 2} 
Flow 872: {17 18 0} {18 93 1} 
Flow 873: {17 26 1} {26 21 2} {21 19 3} {19 94 4} 
Flow 923: {18 30 0} {30 61 1} {61 16 2} {16 91 3} 
Flow 988: {20 50 0} {50 19 1} {19 21 2} {21 22 3} {22 97 4} 
Flow 990: {23 24 0} {24 99 1} 
Flow 1112: {22 21 0} {21 26 1} {26 40 2} 
Flow 1212: {24 23 0} {23 21 1} {21 96 2} 
Flow 1231: {24 25 0} {25 26 1} {26 18 2} {18 44 3} 
Flow 1330: {25 100 0} 
Flow 1335: {19 50 0} {50 31 1} {31 106 2} 
Flow 1406: {27 51 0} {51 26 1} {26 61 2} 
Flow 1406: {61 37 0} {37 36 1} {36 111 2} 
Flow 1413: {56 59 0} {59 46 1} {46 43 2} {43 118 3} 
Flow 1521: {41 26 0} {26 17 1} 
Flow 1534: {29 34 0} {34 109 1} 
Flow 1597: {16 69 0} {69 35 1} {35 110 2} 
Flow 1620: {30 18 0} {18 59 1} {59 134 2} 
Flow 1647: {31 50 0} {50 56 1} {56 27 2} {27 32 3} {32 107 4} 
Flow 1703: {26 59 0} {59 33 1} {33 45 2} {45 120 3} 
Flow 1711: {32 27 0} {27 56 1} {56 57 2} 
Flow 1813: {34 29 0} {29 42 1} {42 117 2} 
Flow 1826: {34 41 0} {41 56 1} {56 58 2} {58 133 3} 
Flow 1844: {10 9 0} {9 84 1} 
Flow 1861: {35 13 0} {13 47 1} {47 33 2} {33 108 3} 
Flow 1864: {35 69 0} {69 28 1} {28 41 2} {41 38 3} 
Flow 1939: {36 49 0} {49 61 1} {61 26 2} {26 51 3} {51 126 4} 
Flow 1983: {37 15 0} {15 16 1} {16 28 2} {28 29 3} {29 104 4} 
Flow 2045: {38 26 0} {26 101 1} 
Flow 2052: {38 41 0} {41 34 1} 
Flow 2116: {49 36 0} {36 37 1} {37 112 2} 
Flow 2119: {39 18 0} {18 26 1} {26 41 2} {41 116 3} 
Flow 2154: {40 41 0} {41 28 1} {28 10 2} {10 85 3} 
Flow 2182: {40 26 0} {26 32 1} {32 62 2} {62 137 3} 
Flow 2238: {42 41 0} {41 59 1} {59 52 2} 
Flow 2245: {42 29 0} {29 28 1} {28 47 2} {47 122 3} 
Flow 2288: {43 47 0} {47 48 1} {48 123 2} 
Flow 2345: {44 59 0} {59 41 1} {41 42 2} 
Flow 2350: {44 18 1} {18 39 2} {39 49 3} {49 124 4} 
Flow 2391: {45 47 0} {47 61 1} {61 30 2} {30 105 3} 
Flow 2405: {45 48 0} 
Flow 2442: {46 59 0} {59 26 1} {26 25 2} {25 24 3} 
Flow 2553: {48 45 0} {45 33 1} {33 11 2} {11 6 3} {6 81 4} 
Flow 2594: {48 47 0} {47 59 1} {59 58 2} 
Flow 2604: {47 69 0} {69 144 1} 
Flow 2679: {21 23 0} {23 98 1} 
Flow 2720: {33 65 0} {65 66 1} 
Flow 2776: {51 27 0} {27 62 1} {62 60 2} {60 135 3} 
Flow 2816: {52 59 0} {59 47 1} {47 13 2} {13 35 3} 
Flow 2845: {7 11 0} {11 67 1} {67 66 2} {66 141 3} 
Flow 2948: {54 55 0} 
Flow 2956: {54 7 0} {7 2 1} {2 1 2} {1 64 3} {64 139 4} 
Flow 2995: {55 11 0} {11 33 1} {33 59 2} {59 44 3} {44 119 4} 
Flow 3002: {55 54 0} {54 129 1} 
Flow 3086: {57 58 0} {58 52 1} {52 3 2} {3 78 3} 
Flow 3111: {57 56 0} {56 41 1} {41 40 2} {40 115 3} 
Flow 3141: {52 7 0} {7 8 1} {8 6 2} {6 5 3} {5 80 4} 
Flow 3201: {58 59 0} {59 70 1} {70 145 2} 
Flow 3215: {13 14 0} {14 89 1} 
Flow 3221: {50 20 0} {20 95 1} 
Flow 3290: {62 27 0} {27 102 1} 
Flow 3298: {60 62 0} {62 32 1} {32 26 2} {26 38 3} {38 113 4} 
Flow 3366: {61 47 0} {47 45 1} 
Flow 3499: {53 7 0} {7 54 1} 
Flow 3555: {63 3 0} {3 52 1} {52 127 2} 
Flow 3567: {64 63 0} {63 53 1} {53 65 2} {65 67 3} 
Flow 3632: {66 67 0} {67 11 1} {11 86 2} 
Flow 3639: {66 65 0} {65 33 1} {33 47 2} {47 28 3} {28 103 4} 
Flow 3726: {67 65 0} {65 53 1} {53 63 2} {63 138 3} 
Flow 3737: {68 12 1} {12 11 2} {11 4 3} {4 79 4} 
Flow 3740: {6 8 0} {8 83 1} 
Flow 3791: {68 67 0} {67 142 1} 
Flow 3836: {69 47 0} {47 43 1} {43 46 2} {46 121 3} 
Flow 3858: {65 68 0} 
Flow 3860: {59 63 0} {63 71 1} 
Flow 3899: {70 59 0} {59 56 1} {56 50 2} {50 125 3} 
Flow 3917: {70 71 0} {71 146 1} 
Flow 3918: {71 63 0} {63 64 1} {64 1 2} {1 76 3} 
Flow 3979: {71 70 0} 
Time taken running everything: 27 seconds
