networks/zoo_146_3979/zoo_146_3979-lower.sol
<?xml version = "1.0" encoding="UTF-8" standalone="yes"?>
<CPLEXSolution version="1.2">
 <header
   problemName="networks/zoo_146_3979/zoo_146_3979-lower.lp"
   solutionName="incumbent"
   solutionIndex="-1"
   objectiveValue="70"
   solutionTypeValue="3"
   solutionTypeString="primal"
   solutionStatusValue="101"
   solutionStatusString="integer optimal solution"
   solutionMethodString="mip"
   primalFeasible="1"
   dualFeasible="1"
   MIPNodes="0"
   MIPIterations="0"
   writeLevel="3"/>
 <quality
   epInt="1.0000000000000001e-05"
   epRHS="9.9999999999999995e-07"
   maxIntInfeas="0"
   maxPrimalInfeas="0"
   maxX="1"
   maxSlack="1"/>
 <variables>
  <variable name="Y(1,2)" index="1" value="1"/>
  <variable name="Y(2,3)" index="143" value="1"/>
  <variable name="Y(3,4)" index="285" value="1"/>
  <variable name="Y(4,6)" index="428" value="1"/>
  <variable name="Y(5,7)" index="570" value="1"/>
  <variable name="Y(6,8)" index="712" value="1"/>
  <variable name="Y(7,9)" index="854" value="1"/>
  <variable name="Y(8,10)" index="996" value="1"/>
  <variable name="Y(9,11)" index="1138" value="1"/>
  <variable name="Y(10,13)" index="1281" value="1"/>
  <variable name="Y(11,15)" index="1424" value="1"/>
  <variable name="Y(12,16)" index="1566" value="1"/>
  <variable name="Y(13,17)" index="1708" value="1"/>
  <variable name="Y(14,18)" index="1850" value="1"/>
  <variable name="Y(15,19)" index="1992" value="1"/>
  <variable name="Y(16,21)" index="2135" value="1"/>
  <variable name="Y(17,22)" index="2277" value="1"/>
  <variable name="Y(18,23)" index="2419" value="1"/>
  <variable name="Y(19,24)" index="2561" value="1"/>
  <variable name="Y(20,26)" index="2704" value="1"/>
  <variable name="Y(21,27)" index="2846" value="1"/>
  <variable name="Y(22,28)" index="2988" value="1"/>
  <variable name="Y(23,29)" index="3130" value="1"/>
  <variable name="Y(24,30)" index="3272" value="1"/>
  <variable name="Y(25,31)" index="3414" value="1"/>
  <variable name="Y(26,32)" index="3556" value="1"/>
  <variable name="Y(27,33)" index="3698" value="1"/>
  <variable name="Y(28,34)" index="3840" value="1"/>
  <variable name="Y(29,35)" index="3982" value="1"/>
  <variable name="Y(30,36)" index="4124" value="1"/>
  <variable name="Y(31,37)" index="4266" value="1"/>
  <variable name="Y(32,38)" index="4408" value="1"/>
  <variable name="Y(33,39)" index="4550" value="1"/>
  <variable name="Y(34,40)" index="4692" value="1"/>
  <variable name="Y(35,41)" index="4834" value="1"/>
  <variable name="Y(36,42)" index="4976" value="1"/>
  <variable name="Y(37,43)" index="5118" value="1"/>
  <variable name="Y(38,44)" index="5260" value="1"/>
  <variable name="Y(39,45)" index="5402" value="1"/>
  <variable name="Y(40,46)" index="5544" value="1"/>
  <variable name="Y(41,47)" index="5686" value="1"/>
  <variable name="Y(42,48)" index="5828" value="1"/>
  <variable name="Y(43,49)" index="5970" value="1"/>
  <variable name="Y(44,50)" index="6112" value="1"/>
  <variable name="Y(45,51)" index="6254" value="1"/>
  <variable name="Y(46,52)" index="6396" value="1"/>
  <variable name="Y(47,53)" index="6538" value="1"/>
  <variable name="Y(48,54)" index="6680" value="1"/>
  <variable name="Y(49,55)" index="6822" value="1"/>
  <variable name="Y(50,56)" index="6964" value="1"/>
  <variable name="Y(51,57)" index="7106" value="1"/>
  <variable name="Y(52,58)" index="7248" value="1"/>
  <variable name="Y(53,59)" index="7390" value="1"/>
  <variable name="Y(54,60)" index="7532" value="1"/>
  <variable name="Y(55,61)" index="7674" value="1"/>
  <variable name="Y(56,62)" index="7816" value="1"/>
  <variable name="Y(57,63)" index="7958" value="1"/>
  <variable name="Y(58,64)" index="8100" value="1"/>
  <variable name="Y(59,65)" index="8242" value="1"/>
  <variable name="Y(60,66)" index="8384" value="1"/>
  <variable name="Y(61,67)" index="8526" value="1"/>
  <variable name="Y(62,68)" index="8668" value="1"/>
  <variable name="Y(63,69)" index="8810" value="1"/>
  <variable name="Y(64,70)" index="8952" value="1"/>
  <variable name="Y(65,71)" index="9094" value="1"/>
  <variable name="Y(66,1)" index="9165" value="1"/>
  <variable name="Y(568,5)" index="79951" value="1"/>
  <variable name="Y(575,14)" index="80947" value="1"/>
  <variable name="Y(581,20)" index="81799" value="1"/>
  <variable name="Y(1330,25)" index="187413" value="1"/>
  <variable name="X(1,2,1)" index="561039" value="1"/>
  <variable name="X(1,64,2)" index="565019" value="1"/>
  <variable name="X(1,76,66)" index="569062" value="1"/>
  <variable name="X(2,1,66)" index="573041" value="1"/>
  <variable name="X(2,4,3)" index="576957" value="1"/>
  <variable name="X(2,7,5)" index="580938" value="1"/>
  <variable name="X(2,77,1)" index="584913" value="1"/>
  <variable name="X(3,52,105)" index="588996" value="1"/>
  <variable name="X(3,63,104)" index="592974" value="1"/>
  <variable name="X(3,78,2)" index="596851" value="1"/>
  <variable name="X(4,2,166)" index="600994" value="1"/>
  <variable name="X(4,11,4)" index="604811" value="1"/>
  <variable name="X(4,79,3)" index="608789" value="1"/>
  <variable name="X(5,6,220)" index="612985" value="1"/>
  <variable name="X(5,80,568)" index="617312" value="1"/>
  <variable name="X(6,5,568)" index="621291" value="1"/>
  <variable name="X(6,8,265)" index="624967" value="1"/>
  <variable name="X(6,11,220)" index="628901" value="1"/>
  <variable name="X(6,81,4)" index="632664" value="1"/>
  <variable name="X(7,2,105)" index="636744" value="1"/>
  <variable name="X(7,8,6)" index="640624" value="1"/>
  <variable name="X(7,11,112)" index="644709" value="1"/>
  <variable name="X(7,52,46)" index="648622" value="1"/>
  <variable name="X(7,53,47)" index="652602" value="1"/>
  <variable name="X(7,54,48)" index="656582" value="1"/>
  <variable name="X(7,82,5)" index="660518" value="1"/>
  <variable name="X(8,6,107)" index="664599" value="1"/>
  <variable name="X(8,7,385)" index="668856" value="1"/>
  <variable name="X(8,83,6)" index="672456" value="1"/>
  <variable name="X(9,10,449)" index="676878" value="1"/>
  <variable name="X(9,84,7)" index="680415" value="1"/>
  <variable name="X(10,9,7)" index="684394" value="1"/>
  <variable name="X(10,28,449)" index="688815" value="1"/>
  <variable name="X(10,85,8)" index="692353" value="1"/>
  <variable name="X(11,4,220)" index="696544" value="1"/>
  <variable name="X(11,6,4)" index="700307" value="1"/>
  <variable name="X(11,7,222)" index="704504" value="1"/>
  <variable name="X(11,33,27)" index="708288" value="1"/>
  <variable name="X(11,55,49)" index="712289" value="1"/>
  <variable name="X(11,67,60)" index="716279" value="1"/>
  <variable name="X(11,86,9)" index="720207" value="1"/>
  <variable name="X(12,11,632)" index="724809" value="1"/>
  <variable name="X(12,68,687)" index="728843" value="1"/>
  <variable name="X(13,14,575)" index="732710" value="1"/>
  <variable name="X(13,35,29)" index="736143" value="1"/>
  <variable name="X(13,47,694)" index="740787" value="1"/>
  <variable name="X(13,69,696)" index="744768" value="1"/>
  <variable name="X(13,88,10)" index="748061" value="1"/>
  <variable name="X(14,13,712)" index="752742" value="1"/>
  <variable name="X(14,89,575)" index="756584" value="1"/>
  <variable name="X(15,16,774)" index="760762" value="1"/>
  <variable name="X(15,37,471)" index="764438" value="1"/>
  <variable name="X(15,90,11)" index="767957" value="1"/>
  <variable name="X(16,15,11)" index="771936" value="1"/>
  <variable name="X(16,28,774)" index="776678" value="1"/>
  <variable name="X(16,61,467)" index="780350" value="1"/>
  <variable name="X(16,69,776)" index="784638" value="1"/>
  <variable name="X(16,91,12)" index="787853" value="1"/>
  <variable name="X(17,18,861)" index="792681" value="1"/>
  <variable name="X(17,26,867)" index="796666" value="1"/>
  <variable name="X(17,92,13)" index="799791" value="1"/>
  <variable name="X(18,17,13)" index="803770" value="1"/>
  <variable name="X(18,26,918)" index="808654" value="1"/>
  <variable name="X(18,30,24)" index="811739" value="1"/>
  <variable name="X(18,39,30)" index="815724" value="1"/>
  <variable name="X(18,44,890)" index="820563" value="1"/>
  <variable name="X(18,59,861)" index="824513" value="1"/>
  <variable name="X(18,93,14)" index="827645" value="1"/>
  <variable name="X(19,21,984)" index="832594" value="1"/>
  <variable name="X(19,50,1070)" index="836659" value="1"/>
  <variable name="X(19,94,15)" index="839583" value="1"/>
  <variable name="X(20,50,973)" index="844520" value="1"/>
  <variable name="X(20,95,581)" index="848107" value="1"/>
  <variable name="X(21,19,15)" index="851520" value="1"/>
  <variable name="X(21,22,17)" index="855501" value="1"/>
  <variable name="X(21,23,18)" index="859481" value="1"/>
  <variable name="X(21,26,984)" index="864426" value="1"/>
  <variable name="X(21,96,16)" index="867437" value="1"/>
  <variable name="X(22,21,1091)" index="872491" value="1"/>
  <variable name="X(22,97,17)" index="875396" value="1"/>
  <variable name="X(23,21,1135)" index="880493" value="1"/>
  <variable name="X(23,24,990)" index="884327" value="1"/>
  <variable name="X(23,98,18)" index="887334" value="1"/>
  <variable name="X(24,23,1211)" index="892506" value="1"/>
  <variable name="X(24,25,1196)" index="896470" value="1"/>
  <variable name="X(24,99,19)" index="899272" value="1"/>
  <variable name="X(25,24,19)" index="903251" value="1"/>
  <variable name="X(25,26,1196)" index="908407" value="1"/>
  <variable name="X(25,100,1330)" index="912520" value="1"/>
  <variable name="X(26,17,459)" index="915628" value="1"/>
  <variable name="X(26,18,777)" index="919925" value="1"/>
  <variable name="X(26,21,15)" index="923142" value="1"/>
  <variable name="X(26,25,19)" index="927125" value="1"/>
  <variable name="X(26,32,26)" index="931111" value="1"/>
  <variable name="X(26,38,32)" index="935096" value="1"/>
  <variable name="X(26,40,34)" index="939077" value="1"/>
  <variable name="X(26,41,867)" index="943889" value="1"/>
  <variable name="X(26,51,45)" index="947046" value="1"/>
  <variable name="X(26,59,771)" index="951751" value="1"/>
  <variable name="X(26,61,11)" index="954970" value="1"/>
  <variable name="X(26,101,20)" index="958958" value="1"/>
  <variable name="X(27,32,995)" index="963912" value="1"/>
  <variable name="X(27,51,1390)" index="968286" value="1"/>
  <variable name="X(27,56,1376)" index="972251" value="1"/>
  <variable name="X(27,62,99)" index="974953" value="1"/>
  <variable name="X(27,102,21)" index="978854" value="1"/>
  <variable name="X(28,10,7)" index="982819" value="1"/>
  <variable name="X(28,16,74)" index="986865" value="1"/>
  <variable name="X(28,29,23)" index="990793" value="1"/>
  <variable name="X(28,41,459)" index="995208" value="1"/>
  <variable name="X(28,47,449)" index="999177" value="1"/>
  <variable name="X(28,69,457)" index="1003164" value="1"/>
  <variable name="X(28,103,22)" index="1006708" value="1"/>
  <variable name="X(29,28,1508)" index="1012173" value="1"/>
  <variable name="X(29,34,1534)" index="1016178" value="1"/>
  <variable name="X(29,42,1541)" index="1020164" value="1"/>
  <variable name="X(29,104,23)" index="1022625" value="1"/>
  <variable name="X(30,18,1570)" index="1028151" value="1"/>
  <variable name="X(30,61,922)" index="1031482" value="1"/>
  <variable name="X(30,105,24)" index="1034563" value="1"/>
  <variable name="X(31,50,1632)" index="1040150" value="1"/>
  <variable name="X(31,106,25)" index="1042522" value="1"/>
  <variable name="X(32,26,1673)" index="1048149" value="1"/>
  <variable name="X(32,27,1690)" index="1052145" value="1"/>
  <variable name="X(32,62,54)" index="1054488" value="1"/>
  <variable name="X(32,107,26)" index="1058439" value="1"/>
  <variable name="X(33,11,450)" index="1062842" value="1"/>
  <variable name="X(33,45,39)" index="1066410" value="1"/>
  <variable name="X(33,47,71)" index="1070421" value="1"/>
  <variable name="X(33,59,176)" index="1074505" value="1"/>
  <variable name="X(33,65,213)" index="1078521" value="1"/>
  <variable name="X(33,108,27)" index="1082314" value="1"/>
  <variable name="X(34,29,1791)" index="1088057" value="1"/>
  <variable name="X(34,41,1785)" index="1092030" value="1"/>
  <variable name="X(34,109,28)" index="1094252" value="1"/>
  <variable name="X(35,13,1838)" index="1100041" value="1"/>
  <variable name="X(35,69,1844)" index="1104026" value="1"/>
  <variable name="X(35,110,29)" index="1106190" value="1"/>
  <variable name="X(36,37,1906)" index="1112046" value="1"/>
  <variable name="X(36,49,1895)" index="1116014" value="1"/>
  <variable name="X(36,111,30)" index="1118128" value="1"/>
  <variable name="X(37,15,1906)" index="1123983" value="1"/>
  <variable name="X(37,36,528)" index="1126584" value="1"/>
  <variable name="X(37,61,771)" index="1130806" value="1"/>
  <variable name="X(37,112,31)" index="1134045" value="1"/>
  <variable name="X(38,26,2025)" index="1140018" value="1"/>
  <variable name="X(38,41,2032)" index="1144004" value="1"/>
  <variable name="X(38,113,32)" index="1145983" value="1"/>
  <variable name="X(39,18,1895)" index="1151825" value="1"/>
  <variable name="X(39,49,30)" index="1153939" value="1"/>
  <variable name="X(39,114,33)" index="1157921" value="1"/>
  <variable name="X(40,26,2148)" index="1164015" value="1"/>
  <variable name="X(40,41,2154)" index="1168000" value="1"/>
  <variable name="X(40,115,34)" index="1169859" value="1"/>
  <variable name="X(41,26,459)" index="1174263" value="1"/>
  <variable name="X(41,28,7)" index="1177790" value="1"/>
  <variable name="X(41,34,28)" index="1181790" value="1"/>
  <variable name="X(41,38,472)" index="1186213" value="1"/>
  <variable name="X(41,40,474)" index="1190194" value="1"/>
  <variable name="X(41,42,36)" index="1193735" value="1"/>
  <variable name="X(41,56,465)" index="1198143" value="1"/>
  <variable name="X(41,59,1785)" index="1203442" value="1"/>
  <variable name="X(41,116,35)" index="1205671" value="1"/>
  <variable name="X(42,29,2240)" index="1211855" value="1"/>
  <variable name="X(42,41,2238)" index="1215832" value="1"/>
  <variable name="X(42,117,36)" index="1217609" value="1"/>
  <variable name="X(43,46,538)" index="1222090" value="1"/>
  <variable name="X(43,47,2252)" index="1227783" value="1"/>
  <variable name="X(43,118,37)" index="1229547" value="1"/>
  <variable name="X(44,18,2322)" index="1235811" value="1"/>
  <variable name="X(44,59,2311)" index="1239779" value="1"/>
  <variable name="X(44,119,38)" index="1241485" value="1"/>
  <variable name="X(45,33,2372)" index="1247798" value="1"/>
  <variable name="X(45,47,2378)" index="1251783" value="1"/>
  <variable name="X(45,48,2405)" index="1255789" value="1"/>
  <variable name="X(45,120,39)" index="1257402" value="1"/>
  <variable name="X(46,43,37)" index="1261379" value="1"/>
  <variable name="X(46,59,2249)" index="1267570" value="1"/>
  <variable name="X(46,121,40)" index="1269340" value="1"/>
  <variable name="X(47,13,10)" index="1273289" value="1"/>
  <variable name="X(47,28,71)" index="1277329" value="1"/>
  <variable name="X(47,33,450)" index="1281687" value="1"/>
  <variable name="X(47,43,87)" index="1285303" value="1"/>
  <variable name="X(47,45,479)" index="1289674" value="1"/>
  <variable name="X(47,48,42)" index="1293216" value="1"/>
  <variable name="X(47,59,449)" index="1297602" value="1"/>
  <variable name="X(47,61,82)" index="1301214" value="1"/>
  <variable name="X(47,69,63)" index="1305174" value="1"/>
  <variable name="X(47,122,41)" index="1309131" value="1"/>
  <variable name="X(48,45,2550)" index="1315619" value="1"/>
  <variable name="X(48,47,2549)" index="1319597" value="1"/>
  <variable name="X(48,123,42)" index="1321069" value="1"/>
  <variable name="X(49,36,30)" index="1325036" value="1"/>
  <variable name="X(49,39,473)" index="1329458" value="1"/>
  <variable name="X(49,61,1898)" index="1334862" value="1"/>
  <variable name="X(49,124,43)" index="1336986" value="1"/>
  <variable name="X(50,19,76)" index="1340998" value="1"/>
  <variable name="X(50,20,581)" index="1345482" value="1"/>
  <variable name="X(50,31,25)" index="1348905" value="1"/>
  <variable name="X(50,56,973)" index="1353832" value="1"/>
  <variable name="X(50,125,44)" index="1356882" value="1"/>
  <variable name="X(51,26,1390)" index="1362207" value="1"/>
  <variable name="X(51,27,877)" index="1365673" value="1"/>
  <variable name="X(51,126,45)" index="1368820" value="1"/>
  <variable name="X(52,3,67)" index="1372821" value="1"/>
  <variable name="X(52,7,105)" index="1376838" value="1"/>
  <variable name="X(52,58,51)" index="1380763" value="1"/>
  <variable name="X(52,59,75)" index="1384766" value="1"/>
  <variable name="X(52,127,46)" index="1388716" value="1"/>
  <variable name="X(53,7,2851)" index="1395500" value="1"/>
  <variable name="X(53,63,259)" index="1396887" value="1"/>
  <variable name="X(53,65,59)" index="1400666" value="1"/>
  <variable name="X(53,128,47)" index="1404633" value="1"/>
  <variable name="X(54,7,2902)" index="1411467" value="1"/>
  <variable name="X(54,55,2948)" index="1415492" value="1"/>
  <variable name="X(54,129,48)" index="1416571" value="1"/>
  <variable name="X(55,11,2964)" index="1423466" value="1"/>
  <variable name="X(55,54,3002)" index="1427483" value="1"/>
  <variable name="X(55,130,49)" index="1428509" value="1"/>
  <variable name="X(56,27,21)" index="1432460" value="1"/>
  <variable name="X(56,41,979)" index="1437397" value="1"/>
  <variable name="X(56,50,25)" index="1440422" value="1"/>
  <variable name="X(56,57,487)" index="1444863" value="1"/>
  <variable name="X(56,58,974)" index="1449329" value="1"/>
  <variable name="X(56,59,973)" index="1453307" value="1"/>
  <variable name="X(56,131,50)" index="1456363" value="1"/>
  <variable name="X(57,56,3084)" index="1463376" value="1"/>
  <variable name="X(57,58,3085)" index="1467356" value="1"/>
  <variable name="X(57,132,51)" index="1468301" value="1"/>
  <variable name="X(58,52,974)" index="1473203" value="1"/>
  <variable name="X(58,56,76)" index="1476284" value="1"/>
  <variable name="X(58,57,51)" index="1480238" value="1"/>
  <variable name="X(58,59,3148)" index="1487314" value="1"/>
  <variable name="X(58,133,52)" index="1488197" value="1"/>
  <variable name="X(59,18,13)" index="1492137" value="1"/>
  <variable name="X(59,26,11)" index="1496114" value="1"/>
  <variable name="X(59,33,129)" index="1500211" value="1"/>
  <variable name="X(59,41,7)" index="1504068" value="1"/>
  <variable name="X(59,44,38)" index="1508078" value="1"/>
  <variable name="X(59,46,37)" index="1512056" value="1"/>
  <variable name="X(59,47,10)" index="1516008" value="1"/>
  <variable name="X(59,52,451)" index="1520428" value="1"/>
  <variable name="X(59,56,21)" index="1523977" value="1"/>
  <variable name="X(59,58,488)" index="1528423" value="1"/>
  <variable name="X(59,63,449)" index="1532363" value="1"/>
  <variable name="X(59,70,64)" index="1535957" value="1"/>
  <variable name="X(59,134,53)" index="1539925" value="1"/>
  <variable name="X(60,62,3271)" index="1547122" value="1"/>
  <variable name="X(60,135,54)" index="1547884" value="1"/>
  <variable name="X(61,16,11)" index="1551820" value="1"/>
  <variable name="X(61,26,771)" index="1556559" value="1"/>
  <variable name="X(61,30,184)" index="1559951" value="1"/>
  <variable name="X(61,37,31)" index="1563777" value="1"/>
  <variable name="X(61,47,772)" index="1568497" value="1"/>
  <variable name="X(61,49,90)" index="1571794" value="1"/>
  <variable name="X(61,136,55)" index="1575738" value="1"/>
  <variable name="X(62,27,3271)" index="1582933" value="1"/>
  <variable name="X(62,32,3281)" index="1586922" value="1"/>
  <variable name="X(62,60,54)" index="1587674" value="1"/>
  <variable name="X(62,137,56)" index="1591655" value="1"/>
  <variable name="X(63,3,2)" index="1595580" value="1"/>
  <variable name="X(63,53,148)" index="1599705" value="1"/>
  <variable name="X(63,59,7)" index="1603543" value="1"/>
  <variable name="X(63,64,104)" index="1607619" value="1"/>
  <variable name="X(63,71,65)" index="1611559" value="1"/>
  <variable name="X(63,138,57)" index="1615530" value="1"/>
  <variable name="X(64,1,104)" index="1619556" value="1"/>
  <variable name="X(64,63,2)" index="1623433" value="1"/>
  <variable name="X(64,139,58)" index="1627468" value="1"/>
  <variable name="X(65,33,2872)" index="1634261" value="1"/>
  <variable name="X(65,53,545)" index="1635913" value="1"/>
  <variable name="X(65,66,160)" index="1639507" value="1"/>
  <variable name="X(65,67,161)" index="1643487" value="1"/>
  <variable name="X(65,68,162)" index="1647467" value="1"/>
  <variable name="X(65,140,59)" index="1651343" value="1"/>
  <variable name="X(66,65,3625)" index="1658888" value="1"/>
  <variable name="X(66,67,3628)" index="1662870" value="1"/>
  <variable name="X(66,141,60)" index="1663281" value="1"/>
  <variable name="X(67,11,3628)" index="1670828" value="1"/>
  <variable name="X(67,65,3716)" index="1674895" value="1"/>
  <variable name="X(67,66,60)" index="1675218" value="1"/>
  <variable name="X(67,68,62)" index="1679199" value="1"/>
  <variable name="X(67,142,61)" index="1683177" value="1"/>
  <variable name="X(68,12,3734)" index="1690829" value="1"/>
  <variable name="X(68,65,687)" index="1691761" value="1"/>
  <variable name="X(68,67,3791)" index="1698844" value="1"/>
  <variable name="X(68,143,62)" index="1699094" value="1"/>
  <variable name="X(69,13,457)" index="1703468" value="1"/>
  <variable name="X(69,16,722)" index="1707712" value="1"/>
  <variable name="X(69,28,696)" index="1711665" value="1"/>
  <variable name="X(69,35,470)" index="1715418" value="1"/>
  <variable name="X(69,47,796)" index="1719723" value="1"/>
  <variable name="X(69,144,63)" index="1722969" value="1"/>
  <variable name="X(70,59,3861)" index="1730746" value="1"/>
  <variable name="X(70,71,3917)" index="1734781" value="1"/>
  <variable name="X(70,145,64)" index="1734907" value="1"/>
  <variable name="X(71,63,3918)" index="1742740" value="1"/>
  <variable name="X(71,70,3979)" index="1746780" value="1"/>
  <variable name="X(71,146,65)" index="1746845" value="1"/>
 </variables>
</CPLEXSolution>
